0000000000000000
0000000000000000
0000000001000000
0000000001100000
0000000001111100
0000000000010000
0000000000011000
0000000000100000
0000000001100000
0000000011100000
0000001101110000
0000010001000000
0000000000000000
0000000000000000
0000000000000000
0000000000000000
